Minimize
	value: tt

Subject to
tt + 1000 s_1_1 > 0.0
tt - t_1_1 - 1000.000000 s_1_1  > -998.699625
tt + 1000 s_2_1 > 0.0
tt - t_2_1 - 1000.000000 s_2_1  > -997.101216
tt + 1000 s_1_2 > 0.0
tt - t_1_2 - 1000.000000 s_1_2  + 0.000000 s_1_7  > -999.025575
tt + 1000 s_2_2 > 0.0
tt - t_2_2 - 1000.000000 s_2_2  + 0.000000 s_2_7  > -997.549191
tt + 1000 s_1_3 > 0.0
tt - t_1_3 - 1000.000000 s_1_3  + 0.000000 s_1_7  > -999.130387
tt + 1000 s_2_3 > 0.0
tt - t_2_3 - 1000.000000 s_2_3  + 0.000000 s_2_7  > -997.964156
tt + 1000 s_1_4 > 0.0
tt - t_1_4 - 1000.000000 s_1_4  + 0.000000 s_1_7  + 0.000000 s_1_3  > -999.532190
tt + 1000 s_2_4 > 0.0
tt - t_2_4 - 1000.000000 s_2_4  + 0.000000 s_2_7  + 0.000000 s_2_3  > -998.979741
tt + 1000 s_1_5 > 0.0
tt - t_1_5 - 1000.000000 s_1_5  + 0.000000 s_1_7  > -998.931497
tt + 1000 s_2_5 > 0.0
tt - t_2_5 - 1000.000000 s_2_5  + 0.000000 s_2_7  > -997.845624
tt + 1000 s_1_6 > 0.0
tt - t_1_6 - 1000.000000 s_1_6  + 0.000000 s_1_3  + 0.000000 s_1_4  + 0.000000 s_1_1  + 0.000000 s_1_2  + 0.000000 s_1_5  > -999.423600
tt + 1000 s_2_6 > 0.0
tt - t_2_6 - 1000.000000 s_2_6  + 0.000000 s_2_3  + 0.000000 s_2_4  + 0.000000 s_2_1  + 0.000000 s_2_2  + 0.000000 s_2_5  > -999.185650
tt + 1000 s_1_7 > 0.0
tt - t_1_7 - 1000.000000 s_1_7  > -999.080819
tt + 1000 s_2_7 > 0.0
tt - t_2_7 - 1000.000000 s_2_7  > -998.120929
s_1_1 + s_2_1 = 1
s_1_2 + s_2_2 = 1
s_1_3 + s_2_3 = 1
s_1_4 + s_2_4 = 1
s_1_5 + s_2_5 = 1
s_1_6 + s_2_6 = 1
s_1_7 + s_2_7 = 1
s_1_1 + s_1_2 + 1000 r_1_1_2 >= 2
- s_1_1 - s_1_2 - 1000 r_1_1_2 >= -1001
t_1_1 - t_1_2 - 1000.000000 u_1_1_2 - 0.000000 s_1_2  + 0.000000 s_1_7  + 2000.000000 r_1_1_2 > -999.025575
s_2_1 + s_2_2 + 1000 r_2_1_2 >= 2
- s_2_1 - s_2_2 - 1000 r_2_1_2 >= -1001
t_2_1 - t_2_2 - 1000.000000 u_2_1_2 - 0.000000 s_2_2  + 0.000000 s_2_7  + 2000.000000 r_2_1_2 > -997.549191
s_1_1 + s_1_3 + 1000 r_1_1_3 >= 2
- s_1_1 - s_1_3 - 1000 r_1_1_3 >= -1001
t_1_1 - t_1_3 - 1000.000000 u_1_1_3 - 0.000000 s_1_3  + 0.000000 s_1_7  + 2000.000000 r_1_1_3 > -999.130387
s_2_1 + s_2_3 + 1000 r_2_1_3 >= 2
- s_2_1 - s_2_3 - 1000 r_2_1_3 >= -1001
t_2_1 - t_2_3 - 1000.000000 u_2_1_3 - 0.000000 s_2_3  + 0.000000 s_2_7  + 2000.000000 r_2_1_3 > -997.964156
s_1_1 + s_1_4 + 1000 r_1_1_4 >= 2
- s_1_1 - s_1_4 - 1000 r_1_1_4 >= -1001
t_1_1 - t_1_4 - 1000.000000 u_1_1_4 - 0.000000 s_1_4  + 0.000000 s_1_7  + 0.000000 s_1_3  + 2000.000000 r_1_1_4 > -999.532190
s_2_1 + s_2_4 + 1000 r_2_1_4 >= 2
- s_2_1 - s_2_4 - 1000 r_2_1_4 >= -1001
t_2_1 - t_2_4 - 1000.000000 u_2_1_4 - 0.000000 s_2_4  + 0.000000 s_2_7  + 0.000000 s_2_3  + 2000.000000 r_2_1_4 > -998.979741
s_1_1 + s_1_5 + 1000 r_1_1_5 >= 2
- s_1_1 - s_1_5 - 1000 r_1_1_5 >= -1001
t_1_1 - t_1_5 - 1000.000000 u_1_1_5 - 0.000000 s_1_5  + 0.000000 s_1_7  + 2000.000000 r_1_1_5 > -998.931497
s_2_1 + s_2_5 + 1000 r_2_1_5 >= 2
- s_2_1 - s_2_5 - 1000 r_2_1_5 >= -1001
t_2_1 - t_2_5 - 1000.000000 u_2_1_5 - 0.000000 s_2_5  + 0.000000 s_2_7  + 2000.000000 r_2_1_5 > -997.845624
t_1_6 - t_1_1 - 1000.000000 s_1_1  > -998.699625
t_1_6 - t_2_1 - 1000.000000 s_2_1  > -997.101216
t_2_6 - t_1_1 - 1000.000000 s_1_1  > -998.699625
t_2_6 - t_2_1 - 1000.000000 s_2_1  > -997.101216
s_1_1 + s_1_7 + 1000 r_1_1_7 >= 2
- s_1_1 - s_1_7 - 1000 r_1_1_7 >= -1001
t_1_1 - t_1_7 - 1000.000000 u_1_1_7 - 0.000000 s_1_7  + 2000.000000 r_1_1_7 > -999.080819
s_2_1 + s_2_7 + 1000 r_2_1_7 >= 2
- s_2_1 - s_2_7 - 1000 r_2_1_7 >= -1001
t_2_1 - t_2_7 - 1000.000000 u_2_1_7 - 0.000000 s_2_7  + 2000.000000 r_2_1_7 > -998.120929
s_1_2 + s_1_1 + 1000 r_1_1_2 >= 2
- s_1_2 - s_1_1 - 1000 r_1_1_2 >= -1001
t_1_2 - t_1_1 + 1000.000000 u_1_1_2 - 0.000000 s_1_1  + 2000.000000 r_1_1_2 > 1.300375
s_2_2 + s_2_1 + 1000 r_2_1_2 >= 2
- s_2_2 - s_2_1 - 1000 r_2_1_2 >= -1001
t_2_2 - t_2_1 + 1000.000000 u_2_1_2 - 0.000000 s_2_1  + 2000.000000 r_2_1_2 > 2.898784
s_1_2 + s_1_3 + 1000 r_1_2_3 >= 2
- s_1_2 - s_1_3 - 1000 r_1_2_3 >= -1001
t_1_2 - t_1_3 - 1000.000000 u_1_2_3 - 0.000000 s_1_3  + 0.000000 s_1_7  + 2000.000000 r_1_2_3 > -999.130387
s_2_2 + s_2_3 + 1000 r_2_2_3 >= 2
- s_2_2 - s_2_3 - 1000 r_2_2_3 >= -1001
t_2_2 - t_2_3 - 1000.000000 u_2_2_3 - 0.000000 s_2_3  + 0.000000 s_2_7  + 2000.000000 r_2_2_3 > -997.964156
s_1_2 + s_1_4 + 1000 r_1_2_4 >= 2
- s_1_2 - s_1_4 - 1000 r_1_2_4 >= -1001
t_1_2 - t_1_4 - 1000.000000 u_1_2_4 - 0.000000 s_1_4  + 0.000000 s_1_7  + 0.000000 s_1_3  + 2000.000000 r_1_2_4 > -999.532190
s_2_2 + s_2_4 + 1000 r_2_2_4 >= 2
- s_2_2 - s_2_4 - 1000 r_2_2_4 >= -1001
t_2_2 - t_2_4 - 1000.000000 u_2_2_4 - 0.000000 s_2_4  + 0.000000 s_2_7  + 0.000000 s_2_3  + 2000.000000 r_2_2_4 > -998.979741
s_1_2 + s_1_5 + 1000 r_1_2_5 >= 2
- s_1_2 - s_1_5 - 1000 r_1_2_5 >= -1001
t_1_2 - t_1_5 - 1000.000000 u_1_2_5 - 0.000000 s_1_5  + 0.000000 s_1_7  + 2000.000000 r_1_2_5 > -998.931497
s_2_2 + s_2_5 + 1000 r_2_2_5 >= 2
- s_2_2 - s_2_5 - 1000 r_2_2_5 >= -1001
t_2_2 - t_2_5 - 1000.000000 u_2_2_5 - 0.000000 s_2_5  + 0.000000 s_2_7  + 2000.000000 r_2_2_5 > -997.845624
t_1_6 - t_1_2 - 1000.000000 s_1_2  + 0.000000 s_1_7  > -999.025575
t_1_6 - t_2_2 - 1000.000000 s_2_2  + 0.000000 s_2_7  > -997.549191
t_2_6 - t_1_2 - 1000.000000 s_1_2  + 0.000000 s_1_7  > -999.025575
t_2_6 - t_2_2 - 1000.000000 s_2_2  + 0.000000 s_2_7  > -997.549191
t_1_2 - t_1_7 - 1000.000000 s_1_7  > -999.080819
t_1_2 - t_2_7 - 1000.000000 s_2_7  > -998.120929
t_2_2 - t_1_7 - 1000.000000 s_1_7  > -999.080819
t_2_2 - t_2_7 - 1000.000000 s_2_7  > -998.120929
s_1_3 + s_1_1 + 1000 r_1_1_3 >= 2
- s_1_3 - s_1_1 - 1000 r_1_1_3 >= -1001
t_1_3 - t_1_1 + 1000.000000 u_1_1_3 - 0.000000 s_1_1  + 2000.000000 r_1_1_3 > 1.300375
s_2_3 + s_2_1 + 1000 r_2_1_3 >= 2
- s_2_3 - s_2_1 - 1000 r_2_1_3 >= -1001
t_2_3 - t_2_1 + 1000.000000 u_2_1_3 - 0.000000 s_2_1  + 2000.000000 r_2_1_3 > 2.898784
s_1_3 + s_1_2 + 1000 r_1_2_3 >= 2
- s_1_3 - s_1_2 - 1000 r_1_2_3 >= -1001
t_1_3 - t_1_2 + 1000.000000 u_1_2_3 - 0.000000 s_1_2  + 0.000000 s_1_7  + 2000.000000 r_1_2_3 > 0.974425
s_2_3 + s_2_2 + 1000 r_2_2_3 >= 2
- s_2_3 - s_2_2 - 1000 r_2_2_3 >= -1001
t_2_3 - t_2_2 + 1000.000000 u_2_2_3 - 0.000000 s_2_2  + 0.000000 s_2_7  + 2000.000000 r_2_2_3 > 2.450809
t_1_4 - t_1_3 - 1000.000000 s_1_3  + 0.000000 s_1_7  > -999.130387
t_1_4 - t_2_3 - 1000.000000 s_2_3  + 0.000000 s_2_7  > -997.964156
t_2_4 - t_1_3 - 1000.000000 s_1_3  + 0.000000 s_1_7  > -999.130387
t_2_4 - t_2_3 - 1000.000000 s_2_3  + 0.000000 s_2_7  > -997.964156
s_1_3 + s_1_5 + 1000 r_1_3_5 >= 2
- s_1_3 - s_1_5 - 1000 r_1_3_5 >= -1001
t_1_3 - t_1_5 - 1000.000000 u_1_3_5 - 0.000000 s_1_5  + 0.000000 s_1_7  + 2000.000000 r_1_3_5 > -998.931497
s_2_3 + s_2_5 + 1000 r_2_3_5 >= 2
- s_2_3 - s_2_5 - 1000 r_2_3_5 >= -1001
t_2_3 - t_2_5 - 1000.000000 u_2_3_5 - 0.000000 s_2_5  + 0.000000 s_2_7  + 2000.000000 r_2_3_5 > -997.845624
t_1_6 - t_1_3 - 1000.000000 s_1_3  + 0.000000 s_1_7  > -999.130387
t_1_6 - t_2_3 - 1000.000000 s_2_3  + 0.000000 s_2_7  > -997.964156
t_2_6 - t_1_3 - 1000.000000 s_1_3  + 0.000000 s_1_7  > -999.130387
t_2_6 - t_2_3 - 1000.000000 s_2_3  + 0.000000 s_2_7  > -997.964156
t_1_3 - t_1_7 - 1000.000000 s_1_7  > -999.080819
t_1_3 - t_2_7 - 1000.000000 s_2_7  > -998.120929
t_2_3 - t_1_7 - 1000.000000 s_1_7  > -999.080819
t_2_3 - t_2_7 - 1000.000000 s_2_7  > -998.120929
s_1_4 + s_1_1 + 1000 r_1_1_4 >= 2
- s_1_4 - s_1_1 - 1000 r_1_1_4 >= -1001
t_1_4 - t_1_1 + 1000.000000 u_1_1_4 - 0.000000 s_1_1  + 2000.000000 r_1_1_4 > 1.300375
s_2_4 + s_2_1 + 1000 r_2_1_4 >= 2
- s_2_4 - s_2_1 - 1000 r_2_1_4 >= -1001
t_2_4 - t_2_1 + 1000.000000 u_2_1_4 - 0.000000 s_2_1  + 2000.000000 r_2_1_4 > 2.898784
s_1_4 + s_1_2 + 1000 r_1_2_4 >= 2
- s_1_4 - s_1_2 - 1000 r_1_2_4 >= -1001
t_1_4 - t_1_2 + 1000.000000 u_1_2_4 - 0.000000 s_1_2  + 0.000000 s_1_7  + 2000.000000 r_1_2_4 > 0.974425
s_2_4 + s_2_2 + 1000 r_2_2_4 >= 2
- s_2_4 - s_2_2 - 1000 r_2_2_4 >= -1001
t_2_4 - t_2_2 + 1000.000000 u_2_2_4 - 0.000000 s_2_2  + 0.000000 s_2_7  + 2000.000000 r_2_2_4 > 2.450809
s_1_4 + s_1_5 + 1000 r_1_4_5 >= 2
- s_1_4 - s_1_5 - 1000 r_1_4_5 >= -1001
t_1_4 - t_1_5 - 1000.000000 u_1_4_5 - 0.000000 s_1_5  + 0.000000 s_1_7  + 2000.000000 r_1_4_5 > -998.931497
s_2_4 + s_2_5 + 1000 r_2_4_5 >= 2
- s_2_4 - s_2_5 - 1000 r_2_4_5 >= -1001
t_2_4 - t_2_5 - 1000.000000 u_2_4_5 - 0.000000 s_2_5  + 0.000000 s_2_7  + 2000.000000 r_2_4_5 > -997.845624
t_1_6 - t_1_4 - 1000.000000 s_1_4  + 0.000000 s_1_7  + 0.000000 s_1_3  > -999.532190
t_1_6 - t_2_4 - 1000.000000 s_2_4  + 0.000000 s_2_7  + 0.000000 s_2_3  > -998.979741
t_2_6 - t_1_4 - 1000.000000 s_1_4  + 0.000000 s_1_7  + 0.000000 s_1_3  > -999.532190
t_2_6 - t_2_4 - 1000.000000 s_2_4  + 0.000000 s_2_7  + 0.000000 s_2_3  > -998.979741
t_1_4 - t_1_7 - 1000.000000 s_1_7  > -999.080819
t_1_4 - t_2_7 - 1000.000000 s_2_7  > -998.120929
t_2_4 - t_1_7 - 1000.000000 s_1_7  > -999.080819
t_2_4 - t_2_7 - 1000.000000 s_2_7  > -998.120929
s_1_5 + s_1_1 + 1000 r_1_1_5 >= 2
- s_1_5 - s_1_1 - 1000 r_1_1_5 >= -1001
t_1_5 - t_1_1 + 1000.000000 u_1_1_5 - 0.000000 s_1_1  + 2000.000000 r_1_1_5 > 1.300375
s_2_5 + s_2_1 + 1000 r_2_1_5 >= 2
- s_2_5 - s_2_1 - 1000 r_2_1_5 >= -1001
t_2_5 - t_2_1 + 1000.000000 u_2_1_5 - 0.000000 s_2_1  + 2000.000000 r_2_1_5 > 2.898784
s_1_5 + s_1_2 + 1000 r_1_2_5 >= 2
- s_1_5 - s_1_2 - 1000 r_1_2_5 >= -1001
t_1_5 - t_1_2 + 1000.000000 u_1_2_5 - 0.000000 s_1_2  + 0.000000 s_1_7  + 2000.000000 r_1_2_5 > 0.974425
s_2_5 + s_2_2 + 1000 r_2_2_5 >= 2
- s_2_5 - s_2_2 - 1000 r_2_2_5 >= -1001
t_2_5 - t_2_2 + 1000.000000 u_2_2_5 - 0.000000 s_2_2  + 0.000000 s_2_7  + 2000.000000 r_2_2_5 > 2.450809
s_1_5 + s_1_3 + 1000 r_1_3_5 >= 2
- s_1_5 - s_1_3 - 1000 r_1_3_5 >= -1001
t_1_5 - t_1_3 + 1000.000000 u_1_3_5 - 0.000000 s_1_3  + 0.000000 s_1_7  + 2000.000000 r_1_3_5 > 0.869613
s_2_5 + s_2_3 + 1000 r_2_3_5 >= 2
- s_2_5 - s_2_3 - 1000 r_2_3_5 >= -1001
t_2_5 - t_2_3 + 1000.000000 u_2_3_5 - 0.000000 s_2_3  + 0.000000 s_2_7  + 2000.000000 r_2_3_5 > 2.035844
s_1_5 + s_1_4 + 1000 r_1_4_5 >= 2
- s_1_5 - s_1_4 - 1000 r_1_4_5 >= -1001
t_1_5 - t_1_4 + 1000.000000 u_1_4_5 - 0.000000 s_1_4  + 0.000000 s_1_7  + 0.000000 s_1_3  + 2000.000000 r_1_4_5 > 0.467810
s_2_5 + s_2_4 + 1000 r_2_4_5 >= 2
- s_2_5 - s_2_4 - 1000 r_2_4_5 >= -1001
t_2_5 - t_2_4 + 1000.000000 u_2_4_5 - 0.000000 s_2_4  + 0.000000 s_2_7  + 0.000000 s_2_3  + 2000.000000 r_2_4_5 > 1.020259
t_1_6 - t_1_5 - 1000.000000 s_1_5  + 0.000000 s_1_7  > -998.931497
t_1_6 - t_2_5 - 1000.000000 s_2_5  + 0.000000 s_2_7  > -997.845624
t_2_6 - t_1_5 - 1000.000000 s_1_5  + 0.000000 s_1_7  > -998.931497
t_2_6 - t_2_5 - 1000.000000 s_2_5  + 0.000000 s_2_7  > -997.845624
t_1_5 - t_1_7 - 1000.000000 s_1_7  > -999.080819
t_1_5 - t_2_7 - 1000.000000 s_2_7  > -998.120929
t_2_5 - t_1_7 - 1000.000000 s_1_7  > -999.080819
t_2_5 - t_2_7 - 1000.000000 s_2_7  > -998.120929
s_1_7 + s_1_1 + 1000 r_1_1_7 >= 2
- s_1_7 - s_1_1 - 1000 r_1_1_7 >= -1001
t_1_7 - t_1_1 + 1000.000000 u_1_1_7 - 0.000000 s_1_1  + 2000.000000 r_1_1_7 > 1.300375
s_2_7 + s_2_1 + 1000 r_2_1_7 >= 2
- s_2_7 - s_2_1 - 1000 r_2_1_7 >= -1001
t_2_7 - t_2_1 + 1000.000000 u_2_1_7 - 0.000000 s_2_1  + 2000.000000 r_2_1_7 > 2.898784
Binary
s_1_1
s_2_1
s_1_2
s_2_2
s_1_3
s_2_3
s_1_4
s_2_4
s_1_5
s_2_5
s_1_6
s_2_6
s_1_7
s_2_7
u_1_1_2
r_1_1_2
u_2_1_2
r_2_1_2
u_1_1_3
r_1_1_3
u_2_1_3
r_2_1_3
u_1_1_4
r_1_1_4
u_2_1_4
r_2_1_4
u_1_1_5
r_1_1_5
u_2_1_5
r_2_1_5
u_1_1_7
r_1_1_7
u_2_1_7
r_2_1_7
u_1_2_3
r_1_2_3
u_2_2_3
r_2_2_3
u_1_2_4
r_1_2_4
u_2_2_4
r_2_2_4
u_1_2_5
r_1_2_5
u_2_2_5
r_2_2_5
u_1_3_5
r_1_3_5
u_2_3_5
r_2_3_5
u_1_4_5
r_1_4_5
u_2_4_5
r_2_4_5

End
